\* Objective function *\
Minimize
 2 C1 +3 C2 +2 C3 +3 C4 +3 C5

\* Constraints *\
Subject To
 +0.5 C1 +4 C2 +3 C3 +C4 +2 C5 >= 3
 +C1 +2 C2 +C3 +4 C4 +2 C5 = 8

\* Variable bounds *\
Bounds
 C2 >= 2
 C4 <= 5.3

End
